[2026-03-23T13:46:50.255Z] Pipeline "set_exp_2_exp_2_n029_c008_g004" → 2026_03_23_13_46_50_set_exp_2_exp_2_n029_c008_g004_max.sol
Set parameter WLSAccessID
Set parameter WLSSecret
Set parameter LicenseID to value 2792458
Set parameter LogFile to value "gurobi.log"
Using license file /root/gurobi.lic
Academic license 2792458 - for non-commercial use only - registered to an___@studenti.unipg.it

Gurobi Optimizer version 13.0.1 build v13.0.1rc0 (linux64 - "Ubuntu 24.04.4 LTS")
Copyright (c) 2026, Gurobi Optimization, LLC

Warning: Duplicate section found (read 'binary') - Is a variable name equal to an LP file format keyword?
Warning: Duplicate section found (read 'binary') - Is a variable name equal to an LP file format keyword?
Warning: Duplicate section found (read 'binary') - Is a variable name equal to an LP file format keyword?
Warning: Duplicate section found (read 'binary') - Is a variable name equal to an LP file format keyword?
Warning: Duplicate section found (read 'binary') - Is a variable name equal to an LP file format keyword?
Warning: Duplicate section found (read 'binary') - Is a variable name equal to an LP file format keyword?
Warning: Duplicate section found (read 'binary') - Is a variable name equal to an LP file format keyword?
Warning: Duplicate section found (read 'binary') - Is a variable name equal to an LP file format keyword?
Warning: Duplicate section found (read 'binary') - Is a variable name equal to an LP file format keyword?
Warning: Duplicate section found (read 'binary') - Is a variable name equal to an LP file format keyword?
Warning: Further warnings of this type will be omitted.
Read LP format model from file /root/bgw/data/uploads/2026_03_23_13_46_50_set_exp_2_exp_2_n029_c008_g004_max.lp
Reading time = 0.01 seconds
: 8145 rows, 611 columns, 24397 nonzeros

Using Gurobi shared library /opt/gurobi1301/linux64/lib/libgurobi.so.13.0.1

CPU model: AMD EPYC-Genoa Processor, instruction set [SSE2|AVX|AVX2|AVX512]
Thread count: 16 physical cores, 16 logical processors, using up to 16 threads

Academic license 2792458 - for non-commercial use only - registered to an___@studenti.unipg.it
Optimize a model with 8145 rows, 611 columns and 24397 nonzeros (Max)
Model fingerprint: 0x9458e424
Model has 8 linear objective coefficients
Variable types: 37 continuous, 574 integer (574 binary)
Coefficient statistics:
  Matrix range     [1e+00, 3e+01]
  Objective range  [1e+00, 1e+00]
  Bounds range     [1e+00, 1e+00]
  RHS range        [1e+00, 3e+01]

Found heuristic solution: objective 8.0000000
Presolve removed 779 rows and 168 columns
Presolve time: 0.03s
Presolved: 7366 rows, 443 columns, 22514 nonzeros
Variable types: 0 continuous, 443 integer (427 binary)
Found heuristic solution: objective 10.0000000

Root relaxation: objective 3.200000e+01, 622 iterations, 0.05 seconds (0.06 work units)

    Nodes    |    Current Node    |     Objective Bounds      |     Work
 Expl Unexpl |  Obj  Depth IntInf | Incumbent    BestBd   Gap | It/Node Time

     0     0   32.00000    0   65   10.00000   32.00000   220%     -    0s
H    0     0                      16.0000000   32.00000   100%     -    0s
H    0     0                      19.0000000   32.00000  68.4%     -    0s
H    0     0                      20.0000000   32.00000  60.0%     -    0s
H    0     0                      22.0000000   32.00000  45.5%     -    0s
H    0     0                      23.0000000   32.00000  39.1%     -    0s
     0     0   32.00000    0   80   23.00000   32.00000  39.1%     -    0s
     0     0   32.00000    0   79   23.00000   32.00000  39.1%     -    0s
     0     0   32.00000    0   82   23.00000   32.00000  39.1%     -    0s
     0     0   32.00000    0   42   23.00000   32.00000  39.1%     -    0s
     0     0   32.00000    0   56   23.00000   32.00000  39.1%     -    0s
     0     0   32.00000    0   55   23.00000   32.00000  39.1%     -    0s
     0     0   32.00000    0   58   23.00000   32.00000  39.1%     -    0s
     0     0   32.00000    0   56   23.00000   32.00000  39.1%     -    0s
     0     0   32.00000    0   59   23.00000   32.00000  39.1%     -    0s
     0     0   32.00000    0   46   23.00000   32.00000  39.1%     -    0s
     0     0   32.00000    0   57   23.00000   32.00000  39.1%     -    0s
     0     0   32.00000    0   47   23.00000   32.00000  39.1%     -    0s
     0     0   32.00000    0   59   23.00000   32.00000  39.1%     -    0s
     0     0   32.00000    0   44   23.00000   32.00000  39.1%     -    0s
     0     0   32.00000    0   44   23.00000   32.00000  39.1%     -    0s
     0     0   32.00000    0   44   23.00000   32.00000  39.1%     -    0s
     0     2   32.00000    0   44   23.00000   32.00000  39.1%     -    0s
  1062   542   24.00000   28   12   23.00000   31.92593  38.8%   238    5s
  4007  1401   24.75926   13   75   23.00000   30.00000  30.4%   258   10s
  6852  1791   24.68661   14  121   23.00000   28.97531  26.0%   252   15s
  9515  1555   24.99074   30   28   23.00000   28.00000  21.7%   230   20s
 13737   127     cutoff   31        23.00000   25.00000  8.70%   213   25s

Cutting planes:
  Cover: 2
  Inf proof: 5

Explored 14478 nodes (3027213 simplex iterations) in 25.43 seconds (53.18 work units)
Thread count was 16 (of 16 available processors)

Solution count 10: 23 23 23 ... 8

Optimal solution found (tolerance 1.00e-04)
Best objective 2.300000000000e+01, best bound 2.300000000000e+01, gap 0.0000%

Wrote result file '/root/bgw/data/results/2026_03_23_13_46_50_set_exp_2_exp_2_n029_c008_g004_max.sol'

